p cnf 963 2472
51 -2 -1 0
-51 2 0
-51 1 0
52 -51 -696 0
-52 51 0
-52 696 0
53 -697 -4 0
-53 697 0
-53 4 0
54 -53 -698 0
-54 53 0
-54 698 0
55 -699 -700 0
-55 699 0
-55 700 0
56 -701 -702 0
-56 701 0
-56 702 0
57 -56 -9 0
-57 56 0
-57 9 0
58 -703 -55 0
-58 703 0
-58 55 0
59 -10 -8 0
-59 10 0
-59 8 0
60 -59 -11 0
-60 59 0
-60 11 0
61 -704 -58 0
-61 704 0
-61 58 0
62 -12 -705 0
-62 12 0
-62 705 0
63 -62 -706 0
-63 62 0
-63 706 0
64 -707 -61 0
-64 707 0
-64 61 0
65 -14 -708 0
-65 14 0
-65 708 0
66 -65 -709 0
-66 65 0
-66 709 0
67 -710 -64 0
-67 710 0
-67 64 0
68 -16 -711 0
-68 16 0
-68 711 0
69 -68 -712 0
-69 68 0
-69 712 0
70 -713 -67 0
-70 713 0
-70 67 0
71 -19 -18 0
-71 19 0
-71 18 0
72 -71 -20 0
-72 71 0
-72 20 0
73 -714 -70 0
-73 714 0
-73 70 0
74 -18 -715 0
-74 18 0
-74 715 0
75 -74 -21 0
-75 74 0
-75 21 0
76 -716 -73 0
-76 716 0
-76 73 0
77 -717 -6 0
-77 717 0
-77 6 0
78 -77 -718 0
-78 77 0
-78 718 0
79 -719 -76 0
-79 719 0
-79 76 0
80 -720 -721 0
-80 720 0
-80 721 0
81 -80 -1 0
-81 80 0
-81 1 0
82 -722 -79 0
-82 722 0
-82 79 0
83 -24 -23 0
-83 24 0
-83 23 0
84 -83 -25 0
-84 83 0
-84 25 0
85 -723 -82 0
-85 723 0
-85 82 0
86 -724 -3 0
-86 724 0
-86 3 0
87 -86 -26 0
-87 86 0
-87 26 0
88 -725 -85 0
-88 725 0
-88 85 0
89 -726 -12 0
-89 726 0
-89 12 0
90 -89 -696 0
-90 89 0
-90 696 0
91 -727 -88 0
-91 727 0
-91 88 0
92 -28 -728 0
-92 28 0
-92 728 0
93 -92 -29 0
-93 92 0
-93 29 0
94 -729 -91 0
-94 729 0
-94 91 0
95 -30 -726 0
-95 30 0
-95 726 0
96 -95 -5 0
-96 95 0
-96 5 0
97 -730 -94 0
-97 730 0
-97 94 0
98 -720 -5 0
-98 720 0
-98 5 0
99 -98 -731 0
-99 98 0
-99 731 0
100 -732 -97 0
-100 732 0
-100 97 0
101 -19 -709 0
-101 19 0
-101 709 0
102 -101 -712 0
-102 101 0
-102 712 0
103 -733 -100 0
-103 733 0
-103 100 0
104 -734 -735 0
-104 734 0
-104 735 0
105 -104 -32 0
-105 104 0
-105 32 0
106 -736 -103 0
-106 736 0
-106 103 0
107 -737 -731 0
-107 737 0
-107 731 0
108 -107 -34 0
-108 107 0
-108 34 0
109 -738 -106 0
-109 738 0
-109 106 0
110 -739 -696 0
-110 739 0
-110 696 0
111 -110 -34 0
-111 110 0
-111 34 0
112 -740 -109 0
-112 740 0
-112 109 0
113 -741 -709 0
-113 741 0
-113 709 0
114 -113 -20 0
-114 113 0
-114 20 0
115 -742 -112 0
-115 742 0
-115 112 0
116 -36 -6 0
-116 36 0
-116 6 0
117 -116 -37 0
-117 116 0
-117 37 0
118 -743 -115 0
-118 743 0
-118 115 0
119 -741 -706 0
-119 741 0
-119 706 0
120 -119 -744 0
-120 119 0
-120 744 0
121 -745 -118 0
-121 745 0
-121 118 0
122 -708 -696 0
-122 708 0
-122 696 0
123 -122 -6 0
-123 122 0
-123 6 0
124 -746 -121 0
-124 746 0
-124 121 0
125 -40 -39 0
-125 40 0
-125 39 0
126 -125 -17 0
-126 125 0
-126 17 0
127 -747 -124 0
-127 747 0
-127 124 0
128 -726 -709 0
-128 726 0
-128 709 0
129 -128 -41 0
-129 128 0
-129 41 0
130 -748 -127 0
-130 748 0
-130 127 0
131 -42 -35 0
-131 42 0
-131 35 0
132 -131 -20 0
-132 131 0
-132 20 0
133 -749 -130 0
-133 749 0
-133 130 0
134 -750 -735 0
-134 750 0
-134 735 0
135 -134 -744 0
-135 134 0
-135 744 0
136 -751 -133 0
-136 751 0
-136 133 0
137 -39 -752 0
-137 39 0
-137 752 0
138 -137 -21 0
-138 137 0
-138 21 0
139 -753 -136 0
-139 753 0
-139 136 0
140 -40 -35 0
-140 40 0
-140 35 0
141 -140 -711 0
-141 140 0
-141 711 0
142 -754 -139 0
-142 754 0
-142 139 0
143 -22 -708 0
-143 22 0
-143 708 0
144 -143 -42 0
-144 143 0
-144 42 0
145 -755 -142 0
-145 755 0
-145 142 0
146 -756 -696 0
-146 756 0
-146 696 0
147 -146 -731 0
-147 146 0
-147 731 0
148 -757 -145 0
-148 757 0
-148 145 0
149 -24 -15 0
-149 24 0
-149 15 0
150 -149 -16 0
-150 149 0
-150 16 0
151 -758 -148 0
-151 758 0
-151 148 0
152 -739 -708 0
-152 739 0
-152 708 0
153 -152 -38 0
-153 152 0
-153 38 0
154 -759 -151 0
-154 759 0
-154 151 0
155 -65 -760 0
-155 65 0
-155 760 0
156 -761 -154 0
-156 761 0
-156 154 0
157 -30 -18 0
-157 30 0
-157 18 0
158 -157 -37 0
-158 157 0
-158 37 0
159 -762 -156 0
-159 762 0
-159 156 0
160 -721 -15 0
-160 721 0
-160 15 0
161 -160 -737 0
-161 160 0
-161 737 0
162 -763 -159 0
-162 763 0
-162 159 0
163 -43 -41 0
-163 43 0
-163 41 0
164 -163 -16 0
-164 163 0
-164 16 0
165 -764 -162 0
-165 764 0
-165 162 0
166 -726 -706 0
-166 726 0
-166 706 0
167 -166 -711 0
-167 166 0
-167 711 0
168 -765 -165 0
-168 765 0
-168 165 0
169 -8 -2 0
-169 8 0
-169 2 0
170 -169 -20 0
-170 169 0
-170 20 0
171 -766 -168 0
-171 766 0
-171 168 0
172 -767 -697 0
-172 767 0
-172 697 0
173 -172 -6 0
-173 172 0
-173 6 0
174 -768 -171 0
-174 768 0
-174 171 0
175 -769 -709 0
-175 769 0
-175 709 0
176 -175 -6 0
-176 175 0
-176 6 0
177 -770 -174 0
-177 770 0
-177 174 0
178 -771 -23 0
-178 771 0
-178 23 0
179 -178 -26 0
-179 178 0
-179 26 0
180 -772 -177 0
-180 772 0
-180 177 0
181 -28 -7 0
-181 28 0
-181 7 0
182 -181 -773 0
-182 181 0
-182 773 0
183 -774 -180 0
-183 774 0
-183 180 0
184 -43 -731 0
-184 43 0
-184 731 0
185 -184 -767 0
-185 184 0
-185 767 0
186 -775 -183 0
-186 775 0
-186 183 0
187 -35 -697 0
-187 35 0
-187 697 0
188 -187 -724 0
-188 187 0
-188 724 0
189 -776 -186 0
-189 776 0
-189 186 0
190 -40 -5 0
-190 40 0
-190 5 0
191 -190 -777 0
-191 190 0
-191 777 0
192 -778 -189 0
-192 778 0
-192 189 0
193 -779 -12 0
-193 779 0
-193 12 0
194 -193 -20 0
-194 193 0
-194 20 0
195 -780 -192 0
-195 780 0
-195 192 0
196 -30 -728 0
-196 30 0
-196 728 0
197 -196 -17 0
-197 196 0
-197 17 0
198 -781 -195 0
-198 781 0
-198 195 0
199 -744 -18 0
-199 744 0
-199 18 0
200 -199 -11 0
-200 199 0
-200 11 0
201 -782 -198 0
-201 782 0
-201 198 0
202 -739 -783 0
-202 739 0
-202 783 0
203 -202 -11 0
-203 202 0
-203 11 0
204 -784 -201 0
-204 784 0
-204 201 0
205 -760 -697 0
-205 760 0
-205 697 0
206 -205 -11 0
-206 205 0
-206 11 0
207 -785 -204 0
-207 785 0
-207 204 0
208 -786 -726 0
-208 786 0
-208 726 0
209 -208 -17 0
-209 208 0
-209 17 0
210 -787 -207 0
-210 787 0
-210 207 0
211 -788 -706 0
-211 788 0
-211 706 0
212 -211 -36 0
-212 211 0
-212 36 0
213 -789 -210 0
-213 789 0
-213 210 0
214 -43 -790 0
-214 43 0
-214 790 0
215 -214 -48 0
-215 214 0
-215 48 0
216 -791 -213 0
-216 791 0
-216 213 0
217 -744 -5 0
-217 744 0
-217 5 0
218 -217 -786 0
-218 217 0
-218 786 0
219 -792 -216 0
-219 792 0
-219 216 0
220 -30 -27 0
-220 30 0
-220 27 0
221 -220 -38 0
-221 220 0
-221 38 0
222 -793 -219 0
-222 793 0
-222 219 0
223 -49 -36 0
-223 49 0
-223 36 0
224 -223 -794 0
-224 223 0
-224 794 0
225 -795 -222 0
-225 795 0
-225 222 0
226 -31 -735 0
-226 31 0
-226 735 0
227 -226 -33 0
-227 226 0
-227 33 0
228 -796 -225 0
-228 796 0
-228 225 0
229 -43 -27 0
-229 43 0
-229 27 0
230 -229 -26 0
-230 229 0
-230 26 0
231 -797 -228 0
-231 797 0
-231 228 0
232 -702 -698 0
-232 702 0
-232 698 0
233 -232 -38 0
-233 232 0
-233 38 0
234 -798 -231 0
-234 798 0
-234 231 0
235 -39 -13 0
-235 39 0
-235 13 0
236 -235 -1 0
-236 235 0
-236 1 0
237 -799 -234 0
-237 799 0
-237 234 0
238 -12 -697 0
-238 12 0
-238 697 0
239 -238 -788 0
-239 238 0
-239 788 0
240 -800 -237 0
-240 800 0
-240 237 0
241 -767 -2 0
-241 767 0
-241 2 0
242 -241 -48 0
-242 241 0
-242 48 0
243 -801 -240 0
-243 801 0
-243 240 0
244 -46 -802 0
-244 46 0
-244 802 0
245 -244 -17 0
-245 244 0
-245 17 0
246 -803 -243 0
-246 803 0
-246 243 0
247 -726 -702 0
-247 726 0
-247 702 0
248 -247 -737 0
-248 247 0
-248 737 0
249 -804 -246 0
-249 804 0
-249 246 0
250 -734 -697 0
-250 734 0
-250 697 0
251 -250 -696 0
-251 250 0
-251 696 0
252 -805 -249 0
-252 805 0
-252 249 0
253 -728 -12 0
-253 728 0
-253 12 0
254 -253 -712 0
-254 253 0
-254 712 0
255 -806 -252 0
-255 806 0
-255 252 0
256 -773 -705 0
-256 773 0
-256 705 0
257 -256 -17 0
-257 256 0
-257 17 0
258 -807 -255 0
-258 807 0
-258 255 0
259 -40 -696 0
-259 40 0
-259 696 0
260 -259 -9 0
-260 259 0
-260 9 0
261 -808 -258 0
-261 808 0
-261 258 0
262 -720 -715 0
-262 720 0
-262 715 0
263 -262 -26 0
-263 262 0
-263 26 0
264 -809 -261 0
-264 809 0
-264 261 0
265 -810 -702 0
-265 810 0
-265 702 0
266 -265 -718 0
-266 265 0
-266 718 0
267 -811 -264 0
-267 811 0
-267 264 0
268 -50 -720 0
-268 50 0
-268 720 0
269 -268 -812 0
-269 268 0
-269 812 0
270 -813 -267 0
-270 813 0
-270 267 0
271 -790 -721 0
-271 790 0
-271 721 0
272 -271 -711 0
-272 271 0
-272 711 0
273 -814 -270 0
-273 814 0
-273 270 0
274 -39 -739 0
-274 39 0
-274 739 0
275 -274 -815 0
-275 274 0
-275 815 0
276 -816 -273 0
-276 816 0
-276 273 0
277 -720 -10 0
-277 720 0
-277 10 0
278 -277 -40 0
-278 277 0
-278 40 0
279 -817 -276 0
-279 817 0
-279 276 0
280 -810 -31 0
-280 810 0
-280 31 0
281 -280 -783 0
-281 280 0
-281 783 0
282 -818 -279 0
-282 818 0
-282 279 0
283 -720 -701 0
-283 720 0
-283 701 0
284 -283 -724 0
-284 283 0
-284 724 0
285 -819 -282 0
-285 819 0
-285 282 0
286 -756 -41 0
-286 756 0
-286 41 0
287 -286 -28 0
-287 286 0
-287 28 0
288 -820 -285 0
-288 820 0
-288 285 0
289 -777 -39 0
-289 777 0
-289 39 0
290 -289 -718 0
-290 289 0
-290 718 0
291 -821 -288 0
-291 821 0
-291 288 0
292 -726 -708 0
-292 726 0
-292 708 0
293 -292 -739 0
-293 292 0
-293 739 0
294 -822 -291 0
-294 822 0
-294 291 0
295 -149 -2 0
-295 149 0
-295 2 0
296 -823 -294 0
-296 823 0
-296 294 0
297 -824 -708 0
-297 824 0
-297 708 0
298 -297 -10 0
-298 297 0
-298 10 0
299 -825 -296 0
-299 825 0
-299 296 0
300 -767 -706 0
-300 767 0
-300 706 0
301 -300 -771 0
-301 300 0
-301 771 0
302 -826 -299 0
-302 826 0
-302 299 0
303 -50 -721 0
-303 50 0
-303 721 0
304 -303 -790 0
-304 303 0
-304 790 0
305 -827 -302 0
-305 827 0
-305 302 0
306 -43 -828 0
-306 43 0
-306 828 0
307 -306 -29 0
-307 306 0
-307 29 0
308 -829 -305 0
-308 829 0
-308 305 0
309 -42 -13 0
-309 42 0
-309 13 0
310 -309 -718 0
-310 309 0
-310 718 0
311 -830 -308 0
-311 830 0
-311 308 0
312 -771 -709 0
-312 771 0
-312 709 0
313 -312 -786 0
-313 312 0
-313 786 0
314 -831 -311 0
-314 831 0
-314 311 0
315 -25 -715 0
-315 25 0
-315 715 0
316 -315 -717 0
-316 315 0
-316 717 0
317 -832 -314 0
-317 832 0
-317 314 0
318 -698 -2 0
-318 698 0
-318 2 0
319 -318 -20 0
-319 318 0
-319 20 0
320 -833 -317 0
-320 833 0
-320 317 0
321 -23 -8 0
-321 23 0
-321 8 0
322 -321 -26 0
-322 321 0
-322 26 0
323 -834 -320 0
-323 834 0
-323 320 0
324 -33 -706 0
-324 33 0
-324 706 0
325 -324 -788 0
-325 324 0
-325 788 0
326 -835 -323 0
-326 835 0
-326 323 0
327 -734 -1 0
-327 734 0
-327 1 0
328 -327 -6 0
-328 327 0
-328 6 0
329 -836 -326 0
-329 836 0
-329 326 0
330 -27 -5 0
-330 27 0
-330 5 0
331 -330 -20 0
-331 330 0
-331 20 0
332 -837 -329 0
-332 837 0
-332 329 0
333 -306 -838 0
-333 306 0
-333 838 0
334 -839 -332 0
-334 839 0
-334 332 0
335 -47 -1 0
-335 47 0
-335 1 0
336 -335 -702 0
-336 335 0
-336 702 0
337 -840 -334 0
-337 840 0
-337 334 0
338 -50 -838 0
-338 50 0
-338 838 0
339 -338 -760 0
-339 338 0
-339 760 0
340 -841 -337 0
-340 841 0
-340 337 0
341 -23 -18 0
-341 23 0
-341 18 0
342 -341 -41 0
-342 341 0
-342 41 0
343 -842 -340 0
-343 842 0
-343 340 0
344 -756 -731 0
-344 756 0
-344 731 0
345 -344 -777 0
-345 344 0
-345 777 0
346 -843 -343 0
-346 843 0
-346 343 0
347 -32 -728 0
-347 32 0
-347 728 0
348 -347 -760 0
-348 347 0
-348 760 0
349 -844 -346 0
-349 844 0
-349 346 0
350 -47 -783 0
-350 47 0
-350 783 0
351 -350 -760 0
-351 350 0
-351 760 0
352 -845 -349 0
-352 845 0
-352 349 0
353 -750 -3 0
-353 750 0
-353 3 0
354 -353 -45 0
-354 353 0
-354 45 0
355 -846 -352 0
-355 846 0
-355 352 0
356 -50 -18 0
-356 50 0
-356 18 0
357 -356 -46 0
-357 356 0
-357 46 0
358 -847 -355 0
-358 847 0
-358 355 0
359 -726 -735 0
-359 726 0
-359 735 0
360 -359 -33 0
-360 359 0
-360 33 0
361 -848 -358 0
-361 848 0
-361 358 0
362 -720 -3 0
-362 720 0
-362 3 0
363 -362 -10 0
-363 362 0
-363 10 0
364 -849 -361 0
-364 849 0
-364 361 0
365 -824 -779 0
-365 824 0
-365 779 0
366 -365 -38 0
-366 365 0
-366 38 0
367 -850 -364 0
-367 850 0
-367 364 0
368 -39 -38 0
-368 39 0
-368 38 0
369 -368 -794 0
-369 368 0
-369 794 0
370 -851 -367 0
-370 851 0
-370 367 0
371 -756 -744 0
-371 756 0
-371 744 0
372 -371 -26 0
-372 371 0
-372 26 0
373 -852 -370 0
-373 852 0
-373 370 0
374 -824 -47 0
-374 824 0
-374 47 0
375 -374 -4 0
-375 374 0
-375 4 0
376 -853 -373 0
-376 853 0
-376 373 0
377 -769 -30 0
-377 769 0
-377 30 0
378 -377 -786 0
-378 377 0
-378 786 0
379 -854 -376 0
-379 854 0
-379 376 0
380 -50 -708 0
-380 50 0
-380 708 0
381 -380 -11 0
-381 380 0
-381 11 0
382 -855 -379 0
-382 855 0
-382 379 0
383 -756 -4 0
-383 756 0
-383 4 0
384 -383 -752 0
-384 383 0
-384 752 0
385 -856 -382 0
-385 856 0
-385 382 0
386 -735 -22 0
-386 735 0
-386 22 0
387 -386 -10 0
-387 386 0
-387 10 0
388 -857 -385 0
-388 857 0
-388 385 0
389 -720 -18 0
-389 720 0
-389 18 0
390 -389 -46 0
-390 389 0
-390 46 0
391 -858 -388 0
-391 858 0
-391 388 0
392 -40 -731 0
-392 40 0
-392 731 0
393 -392 -794 0
-393 392 0
-393 794 0
394 -859 -391 0
-394 859 0
-394 391 0
395 -802 -5 0
-395 802 0
-395 5 0
396 -395 -17 0
-396 395 0
-396 17 0
397 -860 -394 0
-397 860 0
-397 394 0
398 -734 -705 0
-398 734 0
-398 705 0
399 -398 -711 0
-399 398 0
-399 711 0
400 -861 -397 0
-400 861 0
-400 397 0
401 -47 -737 0
-401 47 0
-401 737 0
402 -401 -711 0
-402 401 0
-402 711 0
403 -862 -400 0
-403 862 0
-403 400 0
404 -50 -3 0
-404 50 0
-404 3 0
405 -404 -788 0
-405 404 0
-405 788 0
406 -863 -403 0
-406 863 0
-406 403 0
407 -769 -33 0
-407 769 0
-407 33 0
408 -407 -771 0
-408 407 0
-408 771 0
409 -864 -406 0
-409 864 0
-409 406 0
410 -27 -715 0
-410 27 0
-410 715 0
411 -410 -812 0
-411 410 0
-411 812 0
412 -865 -409 0
-412 865 0
-412 409 0
413 -10 -4 0
-413 10 0
-413 4 0
414 -413 -32 0
-414 413 0
-414 32 0
415 -866 -412 0
-415 866 0
-415 412 0
416 -40 -739 0
-416 40 0
-416 739 0
417 -416 -771 0
-417 416 0
-417 771 0
418 -867 -415 0
-418 867 0
-418 415 0
419 -756 -29 0
-419 756 0
-419 29 0
420 -419 -717 0
-420 419 0
-420 717 0
421 -868 -418 0
-421 868 0
-421 418 0
422 -735 -731 0
-422 735 0
-422 731 0
423 -422 -45 0
-423 422 0
-423 45 0
424 -869 -421 0
-424 869 0
-424 421 0
425 -794 -38 0
-425 794 0
-425 38 0
426 -425 -717 0
-426 425 0
-426 717 0
427 -870 -424 0
-427 870 0
-427 424 0
428 -701 -697 0
-428 701 0
-428 697 0
429 -428 -21 0
-429 428 0
-429 21 0
430 -871 -427 0
-430 871 0
-430 427 0
431 -741 -728 0
-431 741 0
-431 728 0
432 -431 -718 0
-432 431 0
-432 718 0
433 -872 -430 0
-433 872 0
-433 430 0
434 -33 -13 0
-434 33 0
-434 13 0
435 -434 -724 0
-435 434 0
-435 724 0
436 -873 -433 0
-436 873 0
-436 433 0
437 -734 -14 0
-437 734 0
-437 14 0
438 -437 -44 0
-438 437 0
-438 44 0
439 -874 -436 0
-439 874 0
-439 436 0
440 -33 -6 0
-440 33 0
-440 6 0
441 -440 -26 0
-441 440 0
-441 26 0
442 -875 -439 0
-442 875 0
-442 439 0
443 -734 -783 0
-443 734 0
-443 783 0
444 -443 -701 0
-444 443 0
-444 701 0
445 -876 -442 0
-445 876 0
-445 442 0
446 -41 -16 0
-446 41 0
-446 16 0
447 -446 -33 0
-447 446 0
-447 33 0
448 -877 -445 0
-448 877 0
-448 445 0
449 -47 -23 0
-449 47 0
-449 23 0
450 -449 -702 0
-450 449 0
-450 702 0
451 -878 -448 0
-451 878 0
-451 448 0
452 -824 -790 0
-452 824 0
-452 790 0
453 -452 -744 0
-453 452 0
-453 744 0
454 -879 -451 0
-454 879 0
-454 451 0
455 -812 -31 0
-455 812 0
-455 31 0
456 -455 -724 0
-456 455 0
-456 724 0
457 -880 -454 0
-457 880 0
-457 454 0
458 -4 -2 0
-458 4 0
-458 2 0
459 -458 -777 0
-459 458 0
-459 777 0
460 -881 -457 0
-460 881 0
-460 457 0
461 -19 -1 0
-461 19 0
-461 1 0
462 -461 -777 0
-462 461 0
-462 777 0
463 -882 -460 0
-463 882 0
-463 460 0
464 -734 -18 0
-464 734 0
-464 18 0
465 -464 -790 0
-465 464 0
-465 790 0
466 -883 -463 0
-466 883 0
-466 463 0
467 -40 -16 0
-467 40 0
-467 16 0
468 -467 -45 0
-468 467 0
-468 45 0
469 -884 -466 0
-469 884 0
-469 466 0
470 -37 -15 0
-470 37 0
-470 15 0
471 -470 -48 0
-471 470 0
-471 48 0
472 -885 -469 0
-472 885 0
-472 469 0
473 -42 -769 0
-473 42 0
-473 769 0
474 -473 -718 0
-474 473 0
-474 718 0
475 -886 -472 0
-475 886 0
-475 472 0
476 -887 -739 0
-476 887 0
-476 739 0
477 -476 -37 0
-477 476 0
-477 37 0
478 -888 -475 0
-478 888 0
-478 475 0
479 -731 -16 0
-479 731 0
-479 16 0
480 -479 -767 0
-480 479 0
-480 767 0
481 -889 -478 0
-481 889 0
-481 478 0
482 -37 -828 0
-482 37 0
-482 828 0
483 -482 -48 0
-483 482 0
-483 48 0
484 -890 -481 0
-484 890 0
-484 481 0
485 -35 -13 0
-485 35 0
-485 13 0
486 -485 -21 0
-486 485 0
-486 21 0
487 -891 -484 0
-487 891 0
-487 484 0
488 -750 -697 0
-488 750 0
-488 697 0
489 -488 -10 0
-489 488 0
-489 10 0
490 -892 -487 0
-490 892 0
-490 487 0
491 -750 -35 0
-491 750 0
-491 35 0
492 -491 -724 0
-492 491 0
-492 724 0
493 -893 -490 0
-493 893 0
-493 490 0
494 -29 -5 0
-494 29 0
-494 5 0
495 -494 -20 0
-495 494 0
-495 20 0
496 -894 -493 0
-496 894 0
-496 493 0
497 -389 -26 0
-497 389 0
-497 26 0
498 -895 -496 0
-498 895 0
-498 496 0
499 -812 -24 0
-499 812 0
-499 24 0
500 -499 -731 0
-500 499 0
-500 731 0
501 -896 -498 0
-501 896 0
-501 498 0
502 -734 -721 0
-502 734 0
-502 721 0
503 -502 -32 0
-503 502 0
-503 32 0
504 -897 -501 0
-504 897 0
-504 501 0
505 -34 -16 0
-505 34 0
-505 16 0
506 -505 -48 0
-506 505 0
-506 48 0
507 -898 -504 0
-507 898 0
-507 504 0
508 -45 -34 0
-508 45 0
-508 34 0
509 -508 -17 0
-509 508 0
-509 17 0
510 -899 -507 0
-510 899 0
-510 507 0
511 -887 -7 0
-511 887 0
-511 7 0
512 -511 -767 0
-512 511 0
-512 767 0
513 -900 -510 0
-513 900 0
-513 510 0
514 -25 -8 0
-514 25 0
-514 8 0
515 -514 -34 0
-515 514 0
-515 34 0
516 -901 -513 0
-516 901 0
-516 513 0
517 -756 -33 0
-517 756 0
-517 33 0
518 -517 -45 0
-518 517 0
-518 45 0
519 -902 -516 0
-519 902 0
-519 516 0
520 -734 -828 0
-520 734 0
-520 828 0
521 -520 -815 0
-521 520 0
-521 815 0
522 -903 -519 0
-522 903 0
-522 519 0
523 -35 -696 0
-523 35 0
-523 696 0
524 -523 -815 0
-524 523 0
-524 815 0
525 -904 -522 0
-525 904 0
-525 522 0
526 -389 -752 0
-526 389 0
-526 752 0
527 -905 -525 0
-527 905 0
-527 525 0
528 -39 -31 0
-528 39 0
-528 31 0
529 -528 -3 0
-529 528 0
-529 3 0
530 -906 -527 0
-530 906 0
-530 527 0
531 -728 -10 0
-531 728 0
-531 10 0
532 -531 -45 0
-532 531 0
-532 45 0
533 -907 -530 0
-533 907 0
-533 530 0
534 -810 -4 0
-534 810 0
-534 4 0
535 -534 -28 0
-535 534 0
-535 28 0
536 -908 -533 0
-536 908 0
-536 533 0
537 -887 -2 0
-537 887 0
-537 2 0
538 -537 -38 0
-538 537 0
-538 38 0
539 -909 -536 0
-539 909 0
-539 536 0
540 -790 -910 0
-540 790 0
-540 910 0
541 -540 -17 0
-541 540 0
-541 17 0
542 -911 -539 0
-542 911 0
-542 539 0
543 -27 -783 0
-543 27 0
-543 783 0
544 -543 -815 0
-544 543 0
-544 815 0
545 -912 -542 0
-545 912 0
-545 542 0
546 -45 -756 0
-546 45 0
-546 756 0
547 -546 -786 0
-547 546 0
-547 786 0
548 -913 -545 0
-548 913 0
-548 545 0
549 -741 -12 0
-549 741 0
-549 12 0
550 -549 -756 0
-550 549 0
-550 756 0
551 -914 -548 0
-551 914 0
-551 548 0
552 -786 -773 0
-552 786 0
-552 773 0
553 -552 -48 0
-553 552 0
-553 48 0
554 -915 -551 0
-554 915 0
-554 551 0
555 -735 -4 0
-555 735 0
-555 4 0
556 -555 -3 0
-556 555 0
-556 3 0
557 -916 -554 0
-557 916 0
-557 554 0
558 -728 -6 0
-558 728 0
-558 6 0
559 -558 -34 0
-559 558 0
-559 34 0
560 -917 -557 0
-560 917 0
-560 557 0
561 -721 -4 0
-561 721 0
-561 4 0
562 -561 -49 0
-562 561 0
-562 49 0
563 -918 -560 0
-563 918 0
-563 560 0
564 -788 -13 0
-564 788 0
-564 13 0
565 -564 -698 0
-565 564 0
-565 698 0
566 -919 -563 0
-566 919 0
-566 563 0
567 -734 -771 0
-567 734 0
-567 771 0
568 -567 -786 0
-568 567 0
-568 786 0
569 -920 -566 0
-569 920 0
-569 566 0
570 -36 -752 0
-570 36 0
-570 752 0
571 -570 -701 0
-571 570 0
-571 701 0
572 -921 -569 0
-572 921 0
-572 569 0
573 -143 -17 0
-573 143 0
-573 17 0
574 -922 -572 0
-574 922 0
-574 572 0
575 -36 -737 0
-575 36 0
-575 737 0
576 -575 -724 0
-576 575 0
-576 724 0
577 -923 -574 0
-577 923 0
-577 574 0
578 -45 -6 0
-578 45 0
-578 6 0
579 -578 -38 0
-579 578 0
-579 38 0
580 -924 -577 0
-580 924 0
-580 577 0
581 -810 -8 0
-581 810 0
-581 8 0
582 -581 -38 0
-582 581 0
-582 38 0
583 -925 -580 0
-583 925 0
-583 580 0
584 -36 -33 0
-584 36 0
-584 33 0
585 -584 -771 0
-585 584 0
-585 771 0
586 -926 -583 0
-586 926 0
-586 583 0
587 -810 -7 0
-587 810 0
-587 7 0
588 -587 -25 0
-588 587 0
-588 25 0
589 -927 -586 0
-589 927 0
-589 586 0
590 -23 -697 0
-590 23 0
-590 697 0
591 -590 -32 0
-591 590 0
-591 32 0
592 -928 -589 0
-592 928 0
-592 589 0
593 -824 -715 0
-593 824 0
-593 715 0
594 -593 -42 0
-594 593 0
-594 42 0
595 -929 -592 0
-595 929 0
-595 592 0
596 -40 -37 0
-596 40 0
-596 37 0
597 -596 -17 0
-597 596 0
-597 17 0
598 -930 -595 0
-598 930 0
-598 595 0
599 -16 -15 0
-599 16 0
-599 15 0
600 -599 -771 0
-600 599 0
-600 771 0
601 -931 -598 0
-601 931 0
-601 598 0
602 -709 -752 0
-602 709 0
-602 752 0
603 -602 -887 0
-603 602 0
-603 887 0
604 -932 -601 0
-604 932 0
-604 601 0
605 -709 -696 0
-605 709 0
-605 696 0
606 -605 -771 0
-606 605 0
-606 771 0
607 -933 -604 0
-607 933 0
-607 604 0
608 -43 -10 0
-608 43 0
-608 10 0
609 -608 -794 0
-609 608 0
-609 794 0
610 -934 -607 0
-610 934 0
-610 607 0
611 -50 -32 0
-611 50 0
-611 32 0
612 -611 -769 0
-612 611 0
-612 769 0
613 -935 -610 0
-613 935 0
-613 610 0
614 -812 -15 0
-614 812 0
-614 15 0
615 -614 -701 0
-615 614 0
-615 701 0
616 -936 -613 0
-616 936 0
-616 613 0
617 -773 -16 0
-617 773 0
-617 16 0
618 -617 -38 0
-618 617 0
-618 38 0
619 -937 -616 0
-619 937 0
-619 616 0
620 -24 -709 0
-620 24 0
-620 709 0
621 -620 -769 0
-621 620 0
-621 769 0
622 -938 -619 0
-622 938 0
-622 619 0
623 -788 -4 0
-623 788 0
-623 4 0
624 -623 -6 0
-624 623 0
-624 6 0
625 -939 -622 0
-625 939 0
-625 622 0
626 -24 -698 0
-626 24 0
-626 698 0
627 -626 -34 0
-627 626 0
-627 34 0
628 -940 -625 0
-628 940 0
-628 625 0
629 -728 -706 0
-629 728 0
-629 706 0
630 -629 -788 0
-630 629 0
-630 788 0
631 -941 -628 0
-631 941 0
-631 628 0
632 -777 -737 0
-632 777 0
-632 737 0
633 -632 -38 0
-633 632 0
-633 38 0
634 -942 -631 0
-634 942 0
-634 631 0
635 -39 -4 0
-635 39 0
-635 4 0
636 -635 -771 0
-636 635 0
-636 771 0
637 -943 -634 0
-637 943 0
-637 634 0
638 -824 -6 0
-638 824 0
-638 6 0
639 -638 -20 0
-639 638 0
-639 20 0
640 -944 -637 0
-640 944 0
-640 637 0
641 -887 -769 0
-641 887 0
-641 769 0
642 -641 -9 0
-642 641 0
-642 9 0
643 -945 -640 0
-643 945 0
-643 640 0
644 -32 -708 0
-644 32 0
-644 708 0
645 -644 -712 0
-645 644 0
-645 712 0
646 -946 -643 0
-646 946 0
-646 643 0
647 -15 -6 0
-647 15 0
-647 6 0
648 -647 -26 0
-648 647 0
-648 26 0
649 -947 -646 0
-649 947 0
-649 646 0
650 -824 -31 0
-650 824 0
-650 31 0
651 -650 -6 0
-651 650 0
-651 6 0
652 -948 -649 0
-652 948 0
-652 649 0
653 -910 -8 0
-653 910 0
-653 8 0
654 -653 -37 0
-654 653 0
-654 37 0
655 -949 -652 0
-655 949 0
-655 652 0
656 -750 -790 0
-656 750 0
-656 790 0
657 -656 -8 0
-657 656 0
-657 8 0
658 -950 -655 0
-658 950 0
-658 655 0
659 -910 -29 0
-659 910 0
-659 29 0
660 -659 -711 0
-660 659 0
-660 711 0
661 -951 -658 0
-661 951 0
-661 658 0
662 -31 -30 0
-662 31 0
-662 30 0
663 -662 -48 0
-663 662 0
-663 48 0
664 -952 -661 0
-664 952 0
-664 661 0
665 -48 -38 0
-665 48 0
-665 38 0
666 -665 -711 0
-666 665 0
-666 711 0
667 -953 -664 0
-667 953 0
-667 664 0
668 -812 -739 0
-668 812 0
-668 739 0
669 -668 -45 0
-669 668 0
-669 45 0
670 -954 -667 0
-670 954 0
-670 667 0
671 -5 -752 0
-671 5 0
-671 752 0
672 -671 -29 0
-672 671 0
-672 29 0
673 -955 -670 0
-673 955 0
-673 670 0
674 -39 -16 0
-674 39 0
-674 16 0
675 -674 -26 0
-675 674 0
-675 26 0
676 -956 -673 0
-676 956 0
-676 673 0
677 -756 -810 0
-677 756 0
-677 810 0
678 -677 -38 0
-678 677 0
-678 38 0
679 -957 -676 0
-679 957 0
-679 676 0
680 -485 -2 0
-680 485 0
-680 2 0
681 -958 -679 0
-681 958 0
-681 679 0
682 -50 -741 0
-682 50 0
-682 741 0
683 -682 -715 0
-683 682 0
-683 715 0
684 -959 -681 0
-684 959 0
-684 681 0
685 -779 -39 0
-685 779 0
-685 39 0
686 -685 -702 0
-686 685 0
-686 702 0
687 -960 -684 0
-687 960 0
-687 684 0
688 -292 -828 0
-688 292 0
-688 828 0
689 -961 -687 0
-689 961 0
-689 687 0
690 -18 -12 0
-690 18 0
-690 12 0
691 -690 -715 0
-691 690 0
-691 715 0
692 -962 -689 0
-692 962 0
-692 689 0
693 -23 -13 0
-693 23 0
-693 13 0
694 -693 -37 0
-694 693 0
-694 37 0
695 -963 -692 0
-695 963 0
-695 692 0
-696 -3 0
696 3 0
-697 -5 0
697 5 0
-698 -6 0
698 6 0
-699 -54 0
699 54 0
-700 -52 0
700 52 0
-701 -8 0
701 8 0
-702 -7 0
702 7 0
-703 -57 0
703 57 0
-704 -60 0
704 60 0
-705 -1 0
705 1 0
-706 -4 0
706 4 0
-707 -63 0
707 63 0
-708 -13 0
708 13 0
-709 -15 0
709 15 0
-710 -66 0
710 66 0
-711 -11 0
711 11 0
-712 -17 0
712 17 0
-713 -69 0
713 69 0
-714 -72 0
714 72 0
-715 -10 0
715 10 0
-716 -75 0
716 75 0
-717 -20 0
717 20 0
-718 -9 0
718 9 0
-719 -78 0
719 78 0
-720 -22 0
720 22 0
-721 -18 0
721 18 0
-722 -81 0
722 81 0
-723 -84 0
723 84 0
-724 -25 0
724 25 0
-725 -87 0
725 87 0
-726 -27 0
726 27 0
-727 -90 0
727 90 0
-728 -14 0
728 14 0
-729 -93 0
729 93 0
-730 -96 0
730 96 0
-731 -21 0
731 21 0
-732 -99 0
732 99 0
-733 -102 0
733 102 0
-734 -31 0
734 31 0
-735 -24 0
735 24 0
-736 -105 0
736 105 0
-737 -33 0
737 33 0
-738 -108 0
738 108 0
-739 -23 0
739 23 0
-740 -111 0
740 111 0
-741 -35 0
741 35 0
-742 -114 0
742 114 0
-743 -117 0
743 117 0
-744 -38 0
744 38 0
-745 -120 0
745 120 0
-746 -123 0
746 123 0
-747 -126 0
747 126 0
-748 -129 0
748 129 0
-749 -132 0
749 132 0
-750 -43 0
750 43 0
-751 -135 0
751 135 0
-752 -2 0
752 2 0
-753 -138 0
753 138 0
-754 -141 0
754 141 0
-755 -144 0
755 144 0
-756 -44 0
756 44 0
-757 -147 0
757 147 0
-758 -150 0
758 150 0
-759 -153 0
759 153 0
-760 -28 0
760 28 0
-761 -155 0
761 155 0
-762 -158 0
762 158 0
-763 -161 0
763 161 0
-764 -164 0
764 164 0
-765 -167 0
765 167 0
-766 -170 0
766 170 0
-767 -45 0
767 45 0
-768 -173 0
768 173 0
-769 -36 0
769 36 0
-770 -176 0
770 176 0
-771 -29 0
771 29 0
-772 -179 0
772 179 0
-773 -34 0
773 34 0
-774 -182 0
774 182 0
-775 -185 0
775 185 0
-776 -188 0
776 188 0
-777 -46 0
777 46 0
-778 -191 0
778 191 0
-779 -47 0
779 47 0
-780 -194 0
780 194 0
-781 -197 0
781 197 0
-782 -200 0
782 200 0
-783 -12 0
783 12 0
-784 -203 0
784 203 0
-785 -206 0
785 206 0
-786 -37 0
786 37 0
-787 -209 0
787 209 0
-788 -32 0
788 32 0
-789 -212 0
789 212 0
-790 -41 0
790 41 0
-791 -215 0
791 215 0
-792 -218 0
792 218 0
-793 -221 0
793 221 0
-794 -42 0
794 42 0
-795 -224 0
795 224 0
-796 -227 0
796 227 0
-797 -230 0
797 230 0
-798 -233 0
798 233 0
-799 -236 0
799 236 0
-800 -239 0
800 239 0
-801 -242 0
801 242 0
-802 -26 0
802 26 0
-803 -245 0
803 245 0
-804 -248 0
804 248 0
-805 -251 0
805 251 0
-806 -254 0
806 254 0
-807 -257 0
807 257 0
-808 -260 0
808 260 0
-809 -263 0
809 263 0
-810 -39 0
810 39 0
-811 -266 0
811 266 0
-812 -49 0
812 49 0
-813 -269 0
813 269 0
-814 -272 0
814 272 0
-815 -48 0
815 48 0
-816 -275 0
816 275 0
-817 -278 0
817 278 0
-818 -281 0
818 281 0
-819 -284 0
819 284 0
-820 -287 0
820 287 0
-821 -290 0
821 290 0
-822 -293 0
822 293 0
-823 -295 0
823 295 0
-824 -50 0
824 50 0
-825 -298 0
825 298 0
-826 -301 0
826 301 0
-827 -304 0
827 304 0
-828 -19 0
828 19 0
-829 -307 0
829 307 0
-830 -310 0
830 310 0
-831 -313 0
831 313 0
-832 -316 0
832 316 0
-833 -319 0
833 319 0
-834 -322 0
834 322 0
-835 -325 0
835 325 0
-836 -328 0
836 328 0
-837 -331 0
837 331 0
-838 -16 0
838 16 0
-839 -333 0
839 333 0
-840 -336 0
840 336 0
-841 -339 0
841 339 0
-842 -342 0
842 342 0
-843 -345 0
843 345 0
-844 -348 0
844 348 0
-845 -351 0
845 351 0
-846 -354 0
846 354 0
-847 -357 0
847 357 0
-848 -360 0
848 360 0
-849 -363 0
849 363 0
-850 -366 0
850 366 0
-851 -369 0
851 369 0
-852 -372 0
852 372 0
-853 -375 0
853 375 0
-854 -378 0
854 378 0
-855 -381 0
855 381 0
-856 -384 0
856 384 0
-857 -387 0
857 387 0
-858 -390 0
858 390 0
-859 -393 0
859 393 0
-860 -396 0
860 396 0
-861 -399 0
861 399 0
-862 -402 0
862 402 0
-863 -405 0
863 405 0
-864 -408 0
864 408 0
-865 -411 0
865 411 0
-866 -414 0
866 414 0
-867 -417 0
867 417 0
-868 -420 0
868 420 0
-869 -423 0
869 423 0
-870 -426 0
870 426 0
-871 -429 0
871 429 0
-872 -432 0
872 432 0
-873 -435 0
873 435 0
-874 -438 0
874 438 0
-875 -441 0
875 441 0
-876 -444 0
876 444 0
-877 -447 0
877 447 0
-878 -450 0
878 450 0
-879 -453 0
879 453 0
-880 -456 0
880 456 0
-881 -459 0
881 459 0
-882 -462 0
882 462 0
-883 -465 0
883 465 0
-884 -468 0
884 468 0
-885 -471 0
885 471 0
-886 -474 0
886 474 0
-887 -40 0
887 40 0
-888 -477 0
888 477 0
-889 -480 0
889 480 0
-890 -483 0
890 483 0
-891 -486 0
891 486 0
-892 -489 0
892 489 0
-893 -492 0
893 492 0
-894 -495 0
894 495 0
-895 -497 0
895 497 0
-896 -500 0
896 500 0
-897 -503 0
897 503 0
-898 -506 0
898 506 0
-899 -509 0
899 509 0
-900 -512 0
900 512 0
-901 -515 0
901 515 0
-902 -518 0
902 518 0
-903 -521 0
903 521 0
-904 -524 0
904 524 0
-905 -526 0
905 526 0
-906 -529 0
906 529 0
-907 -532 0
907 532 0
-908 -535 0
908 535 0
-909 -538 0
909 538 0
-910 -30 0
910 30 0
-911 -541 0
911 541 0
-912 -544 0
912 544 0
-913 -547 0
913 547 0
-914 -550 0
914 550 0
-915 -553 0
915 553 0
-916 -556 0
916 556 0
-917 -559 0
917 559 0
-918 -562 0
918 562 0
-919 -565 0
919 565 0
-920 -568 0
920 568 0
-921 -571 0
921 571 0
-922 -573 0
922 573 0
-923 -576 0
923 576 0
-924 -579 0
924 579 0
-925 -582 0
925 582 0
-926 -585 0
926 585 0
-927 -588 0
927 588 0
-928 -591 0
928 591 0
-929 -594 0
929 594 0
-930 -597 0
930 597 0
-931 -600 0
931 600 0
-932 -603 0
932 603 0
-933 -606 0
933 606 0
-934 -609 0
934 609 0
-935 -612 0
935 612 0
-936 -615 0
936 615 0
-937 -618 0
937 618 0
-938 -621 0
938 621 0
-939 -624 0
939 624 0
-940 -627 0
940 627 0
-941 -630 0
941 630 0
-942 -633 0
942 633 0
-943 -636 0
943 636 0
-944 -639 0
944 639 0
-945 -642 0
945 642 0
-946 -645 0
946 645 0
-947 -648 0
947 648 0
-948 -651 0
948 651 0
-949 -654 0
949 654 0
-950 -657 0
950 657 0
-951 -660 0
951 660 0
-952 -663 0
952 663 0
-953 -666 0
953 666 0
-954 -669 0
954 669 0
-955 -672 0
955 672 0
-956 -675 0
956 675 0
-957 -678 0
957 678 0
-958 -680 0
958 680 0
-959 -683 0
959 683 0
-960 -686 0
960 686 0
-961 -688 0
961 688 0
-962 -691 0
962 691 0
-963 -694 0
963 694 0
695 0
